p cnf 66 5
-65 -8 -39 -30 -33 65 33 39 8 52 59 29 30 0
-65 -37 -5 -8 -23 65 37 5 8 23 0
-7 -30 -56 -52 -18 -25 -39 -65 -3 -32 -23 -33 -51 -20 -8 -40 -26 -29 -11 -2 -54 -58 -6 -37 -28 1 2 3 5 6 7 8 11 18 20 22 23 25 26 28 29 30 32 33 37 39 40 42 47 51 52 54 55 56 58 63 65 0
 1 2 3 4 5 6 7 8 9 10 11 12 13 14 15 16 17 18 19 20 21 22 23 24 25 26 27 28 29 30 32 33 34 36 37 38 39 41 42 43 44 45 46 47 48 50 51 52 53 54 55 56 57 58 59 61 62 63 64 65 66 0
